! B3LYP def2-TZVPD Opt Freq EnGrad  TightSCF
%maxcore 2000
%geom
Calc_Hess true
Recalc_Hess 5
end
%output
  PrintLevel 5
end
* xyz 0 1
C    0.000000    0.000000    0.000000
O    1.200000    0.000000    0.000000
O   -1.200000    0.000000    0.000000
*

