! B3LYP def2-SVP TightSCF NumFreq
%maxcore 2000
%output
  PrintLevel 5
end
* xyz 0 1
C    0.000000    0.000000    0.000000
O    1.200000    0.000000    0.000000
O   -1.200000    0.000000    0.000000
*

