! B3LYP def2-SVP TightSCF

* xyz 0 1
 C     -0.0000014014     0.0101832574     0.2123508054
 O      0.6155937188    -0.0033120674    -0.0690661219
 O     -0.6155923229    -0.0033118767    -0.0690624135
*
