! B3LYP def2-SVP TightSCF

* xyz 0 1
 C     -0.0000021536     0.0000000205     0.0000000003
 O      0.6336920229    -0.0000000081     0.0000000011
 O     -0.6336901323    -0.0000000106    -0.0000000000
*
