! B3LYP def2-SVP TightSCF

* xyz 0 1
 C     -0.0000037217     0.0000000231    -0.0000000022
 O      0.6714184714    -0.0000000050     0.0000000050
 O     -0.6714155607    -0.0000000128     0.0000000015
*
