! B3LYP def2-SVP TightSCF Freq ENGRAD
* xyz 0 1
   C         -0.0148897368          0.0000000193          0.0000000017
   O          0.6204357055         -0.0000000100         -0.0000000009
   O         -0.6107498391         -0.0000000093         -0.0000000007
*
%elprop
 Polar 1
end
