! B3LYP def2-SVP TightSCF

* xyz 0 1
 C      0.0000001180     0.0000000167     0.0000000040
 O      0.5790405888    -0.0000000126    -0.0000000045
 O     -0.5790401758    -0.0000000075    -0.0000000022
*
