! B3LYP def2-SVP TightSCF Freq
* xyz 0 1
   C         -0.0000014014          0.0013879597          0.0289426881
   O          0.6155937136         -0.0004514317         -0.0094134763
   O         -0.6155923130         -0.0004514057         -0.0094129709
*
%elprop
 Polar 1
end
