! B3LYP def2-SVP TightSCF

* xyz 0 1
 C     -0.0000014013    -0.0056237712    -0.1172727554
 O      0.6155937095     0.0018291059     0.0381424234
 O     -0.6155923051     0.0018290006     0.0381403754
*
