! B3LYP def2-SVP TightSCF

* xyz 0 1
 C      0.0000017864     0.0000000139     0.0000000066
 O      0.5389004824    -0.0000000159    -0.0000000086
 O     -0.5389011546    -0.0000000053    -0.0000000038
*
