! B3LYP def2-SVP TightSCF

* xyz 0 1
 C     -0.0000014014     0.0018232444     0.0380196684
 O      0.6155937139    -0.0005930063    -0.0123657223
 O     -0.6155923135    -0.0005929722    -0.0123650584
*
