! B3LYP def2-SVP TightSCF

* xyz 0 1
 C     -0.0000013997     0.1611117925    -0.0077260797
 O      0.6155937098    -0.0524008627     0.0025128663
 O     -0.6155923089    -0.0523980677     0.0025127420
*
