! B3LYP def2-SVP TightSCF

* xyz 0 1
 C     -0.0603273885     0.0000000198     0.0000000021
 O      0.6352129637    -0.0000000114    -0.0000000014
 O     -0.5959711168    -0.0000000082    -0.0000000006
*
