! B3LYP def2-SVP TightSCF

* xyz 0 1
 C     -0.0000014010     0.0380196831    -0.0018232235
 O      0.6155937121    -0.0123657280     0.0005929935
 O     -0.6155923108    -0.0123650684     0.0005929642
*
