! B3LYP def2-SVP TightSCF

* xyz 0 1
 C     -0.0195590036     0.0000000194     0.0000000017
 O      0.6219542470    -0.0000000102    -0.0000000010
 O     -0.6092311471    -0.0000000091    -0.0000000007
*
