! B3LYP def2-SVP TightSCF

* xyz 0 1
 C     -0.0000029207     0.0000000217    -0.0000000009
 O      0.6521468368    -0.0000000066     0.0000000030
 O     -0.6521444471    -0.0000000117     0.0000000007
*
