! B3LYP def2-SVP TightSCF

* xyz 0 1
 C      0.0828757117     0.0000000184     0.0000000008
 O      0.5886403722    -0.0000000071     0.0000000001
 O     -0.6425483223    -0.0000000116    -0.0000000010
*
