! B3LYP def2-SVP TightSCF

* xyz 0 1
 C     -0.0000014013    -0.0036823453    -0.0767882503
 O      0.6155937106     0.0011976648     0.0249750246
 O     -0.6155923073     0.0011975959     0.0249736836
*
