! B3LYP def2-SVP TightSCF

* xyz 0 1
 C     -0.0000014013    -0.0077260627    -0.1611117845
 O      0.6155937082     0.0025128678     0.0524008658
 O     -0.6155923027     0.0025127232     0.0523980522
*
