! B3LYP def2-SVP TightSCF Freq ENGRAD
* xyz 0 1
   C         -0.0000019740          0.0000000202          0.0000000006
   O          0.6293711538         -0.0000000085          0.0000000006
   O         -0.6293693800         -0.0000000104         -0.0000000002
*
%elprop
 Polar 1
end
