! B3LYP def2-SVP TightSCF

* xyz 0 1
 C     -0.0000045891     0.0000000245    -0.0000000036
 O      0.6922869432    -0.0000000033     0.0000000071
 O     -0.6922834682    -0.0000000139     0.0000000023
*
