! B3LYP def2-SVP TightSCF

* xyz 0 1
 C     -0.0000014018    -0.0380196447     0.0018232265
 O      0.6155937135     0.0123657088    -0.0005929950
 O     -0.6155923120     0.0123650492    -0.0005929657
*
