! B3LYP def2-SVP TightSCF Freq
* xyz 0 1
   C         -0.0000014014          0.0000000192          0.0000000015
   O          0.6155937128         -0.0000000096         -0.0000000008
   O         -0.6155923114         -0.0000000096         -0.0000000008
*
%elprop
 Polar 1
end
