! B3LYP def2-SVP TightSCF

* xyz 0 1
 C     -0.1092362502     0.0000000202     0.0000000025
 O      0.6511191308    -0.0000000129    -0.0000000019
 O     -0.5800633739    -0.0000000070    -0.0000000005
*
