! B3LYP def2-SVP TightSCF

* xyz 0 1
 C     -0.0000014006     0.0767882650    -0.0036823627
 O      0.6155937114    -0.0249750285     0.0011976687
 O     -0.6155923102    -0.0249736964     0.0011976095
*
