! B3LYP def2-SVP TightSCF

* xyz 0 1
 C      0.0195562009     0.0000000190     0.0000000013
 O      0.6092331786    -0.0000000090    -0.0000000006
 O     -0.6219534758    -0.0000000101    -0.0000000008
*
