! B3LYP def2-SVP TightSCF

* xyz 0 1
 C     -0.0000014014     0.0036823837     0.0767882534
 O      0.6155937150    -0.0011976840    -0.0249750261
 O     -0.6155923156    -0.0011976151    -0.0249736851
*
