! B3LYP def2-SVP TightSCF

* xyz 0 1
 C     -0.0000014022    -0.0767882266     0.0036823657
 O      0.6155937142     0.0249750093    -0.0011976702
 O     -0.6155923126     0.0249736772    -0.0011976110
*
