! B3LYP def2-SVP TightSCF

* xyz 0 1
 C     -0.0000014001     0.1172727668    -0.0056237885
 O      0.6155937106    -0.0381424240     0.0018291072
 O     -0.6155923096    -0.0381403895     0.0018290167
*
