! B3LYP def2-SVP TightSCF

* xyz 0 1
 C      0.1092334475     0.0000000182     0.0000000005
 O      0.5800682948    -0.0000000064     0.0000000003
 O     -0.6511212490    -0.0000000122    -0.0000000010
*
