! B3LYP def2-SVP TightSCF

* xyz 0 1
 C     -0.0828785145     0.0000000200     0.0000000023
 O      0.6425470534    -0.0000000121    -0.0000000016
 O     -0.5886363005    -0.0000000076    -0.0000000006
*
