! B3LYP def2-SVP TightSCF

* xyz 0 1
 C     -0.0000014014     0.0056238097     0.1172727584
 O      0.6155937161    -0.0018291251    -0.0381424249
 O     -0.6155923178    -0.0018290198    -0.0381403769
*
