! B3LYP def2-SVP TightSCF

* xyz 0 1
 C     -0.0000006491     0.0000000180     0.0000000027
 O      0.5974954027    -0.0000000111    -0.0000000026
 O     -0.5974944906    -0.0000000086    -0.0000000015
*
