! B3LYP def2-SVP TightSCF

* xyz 0 1
 C     -0.0000013992     0.2123508063    -0.0101832359
 O      0.6155937088    -0.0690661131     0.0033120433
 O     -0.6155923081    -0.0690624291     0.0033118795
*
