! B3LYP def2-SVP TightSCF

* xyz 0 1
 C      0.0394990523     0.0000000188     0.0000000012
 O      0.6027473534    -0.0000000084    -0.0000000004
 O     -0.6284399435    -0.0000000105    -0.0000000009
*
