! B3LYP def2-SVP TightSCF

* xyz 0 1
 C     -0.0000014013    -0.0018232059    -0.0380196653
 O      0.6155937117     0.0005929871     0.0123657208
 O     -0.6155923094     0.0005929530     0.0123650569
*
