! B3LYP def2-SVP Opt TightSCF

%maxcore 2000
* xyz 0 1
 C    0.000000    0.000000    0.000000
 O    1.200000    0.000000    0.000000
 O   -1.200000    0.000000    0.000000
*

