! B3LYP def2-SVP TightSCF

* xyz 0 1
 C      0.0000009190     0.0000000154     0.0000000053
 O      0.5597689542    -0.0000000142    -0.0000000065
 O     -0.5597690622    -0.0000000064    -0.0000000030
*
