! B3LYP def2-SVP TightSCF

* xyz 0 1
 C     -0.0000014026    -0.1172727284     0.0056237915
 O      0.6155937150     0.0381424048    -0.0018291087
 O     -0.6155923133     0.0381403703    -0.0018290182
*
