! B3LYP def2-SVP TightSCF

* xyz 0 1
 C     -0.0000014014     0.0077261011     0.1611117876
 O      0.6155937174    -0.0025128870    -0.0524008673
 O     -0.6155923202    -0.0025127424    -0.0523980537
*
