! B3LYP def2-SVP TightSCF

* xyz 0 1
 C      0.0000028002     0.0000000123     0.0000000083
 O      0.5145094314    -0.0000000179    -0.0000000111
 O     -0.5145107630    -0.0000000039    -0.0000000048
*
