! B3LYP def2-SVP TightSCF Freq
* xyz 0 1
   C          0.0148869341          0.0000000191          0.0000000014
   O          0.6107517201         -0.0000000092         -0.0000000006
   O         -0.6204347838         -0.0000000100         -0.0000000008
*
%elprop
 Polar 1
end
