! B3LYP def2-SVP TightSCF

* xyz 0 1
 C      0.0603245858     0.0000000186     0.0000000010
 O      0.5959744619    -0.0000000078    -0.0000000001
 O     -0.6352135061    -0.0000000110    -0.0000000009
*
