! B3LYP def2-SVP TightSCF

* xyz 0 1
 C     -0.0000014036    -0.2123507679     0.0101832389
 O      0.6155937168     0.0690660939    -0.0033120448
 O     -0.6155923148     0.0690624099    -0.0033118810
*
