! B3LYP def2-SVP TightSCF Freq ENGRAD
* xyz 0 1
   C         -0.0000014011          0.0289427035         -0.0013879388
   O          0.6155937123         -0.0094134827          0.0004514195
   O         -0.6155923110         -0.0094129806          0.0004513972
*
%elprop
 Polar 1
end
