! B3LYP def2-SVP TightSCF

* xyz 0 1
 C     -0.0000056029     0.0000000262    -0.0000000052
 O      0.7166779942    -0.0000000013     0.0000000096
 O     -0.7166738598    -0.0000000153     0.0000000033
*
