! B3LYP def2-TZVPD NumFreq TightSCF

%maxcore 2000

%output
  PrintLevel 5
end

* xyz 0 1
C   -0.000004733671   0.000000040738   0.000000018006
O    2.192162745434  -0.000000015292  -0.000000006759
O   -2.192159191705  -0.000000015292  -0.000000006759
*
