! B3LYP def2-SVP TightSCF

* xyz 0 1
 C     -0.0395018550     0.0000000196     0.0000000019
 O      0.6284400722    -0.0000000108    -0.0000000012
 O     -0.6027446793    -0.0000000087    -0.0000000007
*
