! B3LYP def2-SVP TightSCF

* xyz 0 1
 C     -0.0000014013    -0.0101832190    -0.2123508024
 O      0.6155937068     0.0033120481     0.0690661204
 O     -0.6155923000     0.0033118575     0.0690624120
*
