! B3LYP def2-SVP TightSCF

* xyz 0 1
 C     -0.0000014030    -0.1611117541     0.0077260828
 O      0.6155937158     0.0524008435    -0.0025128678
 O     -0.6155923140     0.0523980485    -0.0025127435
*
